75
[15,16,17,18,19,20,21,22,23,24,25,26,27,28,29,30,31,32,33,34,35,36,37,38,39,40,41,42,43,44,45,46,47,48,49,50,51,52,53,54,55,56,57,58,59,60]
[6,5,4,8,10,5,4,6,6,5,5,11,6,9,6,5,3,3,9,7,5,6,7,7,6,9,9,8,7,7,6,5,7,7,7,6,5,4,9,9,8,7,10,6,8,2]
